NAME: Random_80_1
ELLAPSED_TIME_(ms): 750
TOUR_SIZE: 1718
TOUR_SECTION
0
54
4
67
27
40
75
53
15
2
12
5
45
9
22
20
77
34
60
26
63
48
46
38
49
21
32
30
28
7
55
41
19
43
72
18
57
16
74
17
35
73
42
23
65
25
6
68
71
10
56
51
8
59
50
79
1
24
52
3
62
44
58
61
66
76
47
11
64
31
29
78
36
37
39
70
69
14
33
13
0
EOF
